0000000000000000
0100000000000000
0001111000000000
0000000010000000
0000000001000000
0000000001000000
0000000000100000
0000000000100000
0000000000010000
0000000000010000
0000000000000000
0000000000001000
0000000000001000
0011100000010000
0000001111000000
0000000000000000
